(set-info :source |printed by MathSAT|)
(declare-fun |!{$(in_main#0)<N>}| () Int)
(declare-fun |!{$(in_main#0)<N>}.next| () Int)
(declare-fun |!{$(in_main#0)<equal>}| () Int)
(declare-fun |!{$(in_main#0)<equal>}.next| () Int)
(declare-fun |!{$(in_main#0)<i>}| () Int)
(declare-fun |!{$(in_main#0)<i>}.next| () Int)
(declare-fun |!{$(in_main#0)<j>}| () Int)
(declare-fun |!{$(in_main#0)<j>}.next| () Int)
(declare-fun |!{$(in_main#0)<k>}| () Int)
(declare-fun |!{$(in_main#0)<k>}.next| () Int)
(declare-fun |!{$(in_main#0)<k#1>}| () Int)
(declare-fun |!{$(in_main#0)<k#1>}.next| () Int)
(declare-fun |!{$(in_main#0)<array1.1>}| () (Array Int Int))
(declare-fun |!{$(in_main#0)<array1.1>}.next| () (Array Int Int))
(declare-fun |!{$(in_main#0)<array2.2>}| () (Array Int Int))
(declare-fun |!{$(in_main#0)<array2.2>}.next| () (Array Int Int))
(declare-fun |!{$(in_main#0)<$(in___VERIFIER_nondet_int#0)<h#<__VERIFIER_nondet_int.return>>>}| () Int)
(declare-fun |!{$(in_main#0)<$(in___VERIFIER_nondet_int#2)<h#<__VERIFIER_nondet_int.return>>>}| () Int)
(declare-fun |!{$(in_main#0)<$(in___VERIFIER_nondet_int#3)<h#<__VERIFIER_nondet_int.return>>>}| () Int)
(declare-fun !pc () Int)
(declare-fun !pc.next () Int)
(declare-fun |%{$(in_main#0)<equal>}#1| () Int)
(declare-fun |%{$(in_main#0)<i>}#1| () Int)
(declare-fun |%{$(in_main#0)<j>}#1| () Int)
(declare-fun |%{$(in_main#0)<k#1>}#1| () Int)
(declare-fun |%{$(in_main#0)<array1.1>}#1| () (Array Int Int))
(declare-fun |%{$(in_main#0)<array2.2>}#1| () (Array Int Int))
(declare-fun |%{$(in_main#0)<equal>}#2| () Int)
(define-fun .def_42 () Int (! !pc :next !pc.next))
(define-fun .def_45 () Bool (! (= .def_42 2) :init true))
(define-fun .def_243 () Bool (= .def_42 44))
(define-fun .def_207 () Bool (= !pc.next 74))
(define-fun .def_246 () Bool (and .def_207 .def_243))
(define-fun .def_8 () Int (! |!{$(in_main#0)<N>}| :next |!{$(in_main#0)<N>}.next|))
(define-fun .def_236 () Bool (= .def_8 |!{$(in_main#0)<j>}.next|))
(define-fun .def_234 () Bool (= |!{$(in_main#0)<i>}.next| 0))
(define-fun .def_232 () Bool (= |!{$(in_main#0)<equal>}.next| 1))
(define-fun .def_96 () Bool (= .def_8 |!{$(in_main#0)<N>}.next|))
(define-fun .def_233 () Bool (and .def_96 .def_232))
(define-fun .def_235 () Bool (and .def_233 .def_234))
(define-fun .def_237 () Bool (and .def_235 .def_236))
(define-fun .def_16 () Int (! |!{$(in_main#0)<k>}| :next |!{$(in_main#0)<k>}.next|))
(define-fun .def_104 () Bool (= .def_16 |!{$(in_main#0)<k>}.next|))
(define-fun .def_238 () Bool (and .def_104 .def_237))
(define-fun .def_18 () Int (! |!{$(in_main#0)<k#1>}| :next |!{$(in_main#0)<k#1>}.next|))
(define-fun .def_106 () Bool (= .def_18 |!{$(in_main#0)<k#1>}.next|))
(define-fun .def_239 () Bool (and .def_106 .def_238))
(define-fun .def_20 () (Array Int Int) (! |!{$(in_main#0)<array1.1>}| :next |!{$(in_main#0)<array1.1>}.next|))
(define-fun .def_108 () Bool (= .def_20 |!{$(in_main#0)<array1.1>}.next|))
(define-fun .def_240 () Bool (and .def_108 .def_239))
(define-fun .def_22 () (Array Int Int) (! |!{$(in_main#0)<array2.2>}| :next |!{$(in_main#0)<array2.2>}.next|))
(define-fun .def_110 () Bool (= .def_22 |!{$(in_main#0)<array2.2>}.next|))
(define-fun .def_241 () Bool (and .def_110 .def_240))
(define-fun .def_217 () Bool (<= .def_8 .def_16))
(define-fun .def_242 () Bool (and .def_217 .def_241))
(define-fun .def_247 () Bool (and .def_242 .def_246))
(define-fun .def_82 () Bool (= !pc.next 44))
(define-fun .def_244 () Bool (and .def_82 .def_243))
(define-fun .def_220 () (Array Int Int) (store .def_22 .def_16 |!{$(in_main#0)<$(in___VERIFIER_nondet_int#3)<h#<__VERIFIER_nondet_int.return>>>}|))
(define-fun .def_229 () Bool (= |!{$(in_main#0)<array2.2>}.next| .def_220))
(define-fun .def_219 () (Array Int Int) (store .def_20 .def_16 |!{$(in_main#0)<$(in___VERIFIER_nondet_int#2)<h#<__VERIFIER_nondet_int.return>>>}|))
(define-fun .def_227 () Bool (= |!{$(in_main#0)<array1.1>}.next| .def_219))
(define-fun .def_222 () Int (* (- 1) |!{$(in_main#0)<k>}.next|))
(define-fun .def_223 () Int (+ .def_16 .def_222))
(define-fun .def_224 () Bool (= .def_223 (- 1)))
(define-fun .def_10 () Int (! |!{$(in_main#0)<equal>}| :next |!{$(in_main#0)<equal>}.next|))
(define-fun .def_98 () Bool (= .def_10 |!{$(in_main#0)<equal>}.next|))
(define-fun .def_113 () Bool (and .def_96 .def_98))
(define-fun .def_12 () Int (! |!{$(in_main#0)<i>}| :next |!{$(in_main#0)<i>}.next|))
(define-fun .def_100 () Bool (= .def_12 |!{$(in_main#0)<i>}.next|))
(define-fun .def_114 () Bool (and .def_100 .def_113))
(define-fun .def_14 () Int (! |!{$(in_main#0)<j>}| :next |!{$(in_main#0)<j>}.next|))
(define-fun .def_102 () Bool (= .def_14 |!{$(in_main#0)<j>}.next|))
(define-fun .def_115 () Bool (and .def_102 .def_114))
(define-fun .def_225 () Bool (and .def_115 .def_224))
(define-fun .def_226 () Bool (and .def_106 .def_225))
(define-fun .def_228 () Bool (and .def_226 .def_227))
(define-fun .def_230 () Bool (and .def_228 .def_229))
(define-fun .def_218 () Bool (not .def_217))
(define-fun .def_231 () Bool (and .def_218 .def_230))
(define-fun .def_245 () Bool (and .def_231 .def_244))
(define-fun .def_248 () Bool (or .def_245 .def_247))
(define-fun .def_206 () Bool (= .def_42 74))
(define-fun .def_140 () Bool (= !pc.next 0))
(define-fun .def_213 () Bool (and .def_140 .def_206))
(define-fun .def_177 () Bool (= .def_10 1))
(define-fun .def_179 () Bool (not .def_177))
(define-fun .def_116 () Bool (and .def_104 .def_115))
(define-fun .def_126 () Bool (and .def_106 .def_116))
(define-fun .def_127 () Bool (and .def_108 .def_126))
(define-fun .def_128 () Bool (and .def_110 .def_127))
(define-fun .def_203 () Bool (and .def_128 .def_179))
(define-fun .def_152 () Bool (<= .def_12 .def_14))
(define-fun .def_149 () Bool (<= .def_14 0))
(define-fun .def_150 () Bool (not .def_149))
(define-fun .def_147 () Bool (<= .def_8 .def_12))
(define-fun .def_148 () Bool (not .def_147))
(define-fun .def_151 () Bool (and .def_148 .def_150))
(define-fun .def_153 () Bool (and .def_151 .def_152))
(define-fun .def_176 () Bool (not .def_153))
(define-fun .def_204 () Bool (and .def_176 .def_203))
(define-fun .def_214 () Bool (and .def_204 .def_213))
(define-fun .def_136 () Bool (= !pc.next 108))
(define-fun .def_210 () Bool (and .def_136 .def_206))
(define-fun .def_197 () Bool (= |!{$(in_main#0)<k#1>}.next| 0))
(define-fun .def_198 () Bool (and .def_116 .def_197))
(define-fun .def_199 () Bool (and .def_108 .def_198))
(define-fun .def_200 () Bool (and .def_110 .def_199))
(define-fun .def_201 () Bool (and .def_177 .def_200))
(define-fun .def_202 () Bool (and .def_176 .def_201))
(define-fun .def_211 () Bool (and .def_202 .def_210))
(define-fun .def_208 () Bool (and .def_206 .def_207))
(define-fun .def_187 () Int (* (- 1) |!{$(in_main#0)<j>}.next|))
(define-fun .def_188 () Int (+ .def_14 .def_187))
(define-fun .def_189 () Bool (= .def_188 1))
(define-fun .def_183 () Int (* (- 1) |!{$(in_main#0)<i>}.next|))
(define-fun .def_184 () Int (+ .def_12 .def_183))
(define-fun .def_185 () Bool (= .def_184 (- 1)))
(define-fun .def_181 () Bool (= |!{$(in_main#0)<equal>}.next| |%{$(in_main#0)<equal>}#2|))
(define-fun .def_182 () Bool (and .def_96 .def_181))
(define-fun .def_186 () Bool (and .def_182 .def_185))
(define-fun .def_190 () Bool (and .def_186 .def_189))
(define-fun .def_191 () Bool (and .def_104 .def_190))
(define-fun .def_192 () Bool (and .def_106 .def_191))
(define-fun .def_193 () Bool (and .def_108 .def_192))
(define-fun .def_194 () Bool (and .def_110 .def_193))
(define-fun .def_170 () Bool (= |%{$(in_main#0)<equal>}#2| 0))
(define-fun .def_160 () Int (select .def_22 .def_12))
(define-fun .def_159 () Int (select .def_20 .def_12))
(define-fun .def_161 () Bool (= .def_159 .def_160))
(define-fun .def_162 () Bool (not .def_161))
(define-fun .def_154 () Int (+ .def_14 (- 1)))
(define-fun .def_156 () Int (select .def_22 .def_154))
(define-fun .def_155 () Int (select .def_20 .def_154))
(define-fun .def_157 () Bool (= .def_155 .def_156))
(define-fun .def_158 () Bool (not .def_157))
(define-fun .def_163 () Bool (or .def_158 .def_162))
(define-fun .def_172 () Bool (and .def_163 .def_170))
(define-fun .def_169 () Bool (= .def_10 |%{$(in_main#0)<equal>}#2|))
(define-fun .def_164 () Bool (not .def_163))
(define-fun .def_171 () Bool (and .def_164 .def_169))
(define-fun .def_173 () Bool (or .def_171 .def_172))
(define-fun .def_195 () Bool (and .def_173 .def_194))
(define-fun .def_196 () Bool (and .def_153 .def_195))
(define-fun .def_209 () Bool (and .def_196 .def_208))
(define-fun .def_212 () Bool (or .def_209 .def_211))
(define-fun .def_215 () Bool (or .def_212 .def_214))
(define-fun .def_131 () Bool (= .def_42 108))
(define-fun .def_141 () Bool (and .def_131 .def_140))
(define-fun .def_85 () Bool (<= .def_8 .def_18))
(define-fun .def_129 () Bool (and .def_85 .def_128))
(define-fun .def_142 () Bool (and .def_129 .def_141))
(define-fun .def_137 () Bool (and .def_131 .def_136))
(define-fun .def_118 () Int (* (- 1) |!{$(in_main#0)<k#1>}.next|))
(define-fun .def_119 () Int (+ .def_18 .def_118))
(define-fun .def_120 () Bool (= .def_119 (- 1)))
(define-fun .def_121 () Bool (and .def_116 .def_120))
(define-fun .def_122 () Bool (and .def_108 .def_121))
(define-fun .def_123 () Bool (and .def_110 .def_122))
(define-fun .def_88 () Int (select .def_22 .def_18))
(define-fun .def_87 () Int (select .def_20 .def_18))
(define-fun .def_89 () Bool (= .def_87 .def_88))
(define-fun .def_90 () Int (ite .def_89 1 0))
(define-fun .def_91 () Bool (= .def_90 0))
(define-fun .def_92 () Bool (not .def_91))
(define-fun .def_124 () Bool (and .def_92 .def_123))
(define-fun .def_86 () Bool (not .def_85))
(define-fun .def_125 () Bool (and .def_86 .def_124))
(define-fun .def_138 () Bool (and .def_125 .def_137))
(define-fun .def_133 () Bool (= !pc.next 128))
(define-fun .def_134 () Bool (and .def_131 .def_133))
(define-fun .def_97 () Bool (and .def_91 .def_96))
(define-fun .def_99 () Bool (and .def_97 .def_98))
(define-fun .def_101 () Bool (and .def_99 .def_100))
(define-fun .def_103 () Bool (and .def_101 .def_102))
(define-fun .def_105 () Bool (and .def_103 .def_104))
(define-fun .def_107 () Bool (and .def_105 .def_106))
(define-fun .def_109 () Bool (and .def_107 .def_108))
(define-fun .def_111 () Bool (and .def_109 .def_110))
(define-fun .def_112 () Bool (and .def_86 .def_111))
(define-fun .def_135 () Bool (and .def_112 .def_134))
(define-fun .def_139 () Bool (or .def_135 .def_138))
(define-fun .def_143 () Bool (or .def_139 .def_142))
(define-fun .def_83 () Bool (and .def_45 .def_82))
(define-fun .def_78 () Bool (= |!{$(in_main#0)<array2.2>}.next| |%{$(in_main#0)<array2.2>}#1|))
(define-fun .def_76 () Bool (= |!{$(in_main#0)<array1.1>}.next| |%{$(in_main#0)<array1.1>}#1|))
(define-fun .def_74 () Bool (= |!{$(in_main#0)<k#1>}.next| |%{$(in_main#0)<k#1>}#1|))
(define-fun .def_72 () Bool (= |!{$(in_main#0)<k>}.next| 0))
(define-fun .def_70 () Bool (= |!{$(in_main#0)<j>}.next| |%{$(in_main#0)<j>}#1|))
(define-fun .def_68 () Bool (= |!{$(in_main#0)<i>}.next| |%{$(in_main#0)<i>}#1|))
(define-fun .def_66 () Bool (= |!{$(in_main#0)<equal>}.next| |%{$(in_main#0)<equal>}#1|))
(define-fun .def_65 () Bool (= |!{$(in_main#0)<N>}.next| |!{$(in_main#0)<$(in___VERIFIER_nondet_int#0)<h#<__VERIFIER_nondet_int.return>>>}|))
(define-fun .def_67 () Bool (and .def_65 .def_66))
(define-fun .def_69 () Bool (and .def_67 .def_68))
(define-fun .def_71 () Bool (and .def_69 .def_70))
(define-fun .def_73 () Bool (and .def_71 .def_72))
(define-fun .def_75 () Bool (and .def_73 .def_74))
(define-fun .def_77 () Bool (and .def_75 .def_76))
(define-fun .def_79 () Bool (and .def_77 .def_78))
(define-fun .def_60 () Bool (<= |!{$(in_main#0)<$(in___VERIFIER_nondet_int#0)<h#<__VERIFIER_nondet_int.return>>>}| 0))
(define-fun .def_61 () Bool (not .def_60))
(define-fun .def_62 () Int (ite .def_61 1 0))
(define-fun .def_63 () Bool (= .def_62 0))
(define-fun .def_64 () Bool (not .def_63))
(define-fun .def_80 () Bool (and .def_64 .def_79))
(define-fun .def_84 () Bool (and .def_80 .def_83))
(define-fun .def_144 () Bool (or .def_84 .def_143))
(define-fun .def_216 () Bool (or .def_144 .def_215))
(define-fun .def_249 () Bool (! (or .def_216 .def_248) :trans true))
(define-fun .def_145 () Bool (= .def_42 128))
(define-fun .def_250 () Bool (! (not .def_145) :invar-property 0 :invar-property-name ||))
(assert true)
